//Z1
//max: z1;
//Z2
//min: z2;

//deficency vars
min: d1+d2;


//z1 goal
z1 = 0.04x2 + 0.45x3 + 0.55x4 + 0.07x5 + 0.105x6 + 0.085x7 + 0.092x8 + d1;
z1 >= 20;
//z2 goal
z2 = 0.0025x2 + 0.02x3 + 0.025x4 + 0.0375x5 + 0.05x6 + 0.05x7 + 0.05x8 - d2;
z2 <= 9;

//1
x1+x2+x3+x4+x5+x6+x7+x8 = 250;

//2
x1 >= 24.2;

//3
x1 + 0.995x2 + 0.96x3 + 0.85x5 >= 99.3;

//4
x2 >= 12.5;
x3 >= 12.5;
x4 >= 12.5;
x5 >= 12.5;
x6 >= 12.5;
x7 >= 12.5;

//5
x8 >= 75;

//6
x1 >= 0;
//Others not needed they are covered in 4 and 5